w = 34;
n = 21;
measures = [|12, 34,
|3, 34,
|3, 25,
|3, 22,
|3, 21,
|4, 14,
|4, 11,
|3, 14,
|3, 13,
|3, 12,
|3, 11,
|3, 10,
|3, 9,
|3, 8,
|3, 7,
|4, 5,
|3, 6,
|4, 4,
|3, 5,
|3, 4,
|3, 3,
|];
initial_x = [0, 12, 15, 18, 21, 24, 28, 0, 3, 6, 9, 12, 15, 18, 21, 24, 28, 0, 4, 7, 10];
initial_y = [0, 0, 0, 0, 0, 0, 0, 34, 34, 34, 34, 34, 34, 34, 34, 34, 34, 48, 48, 48, 48];